100 500 10 200 10 100
64 191
61 138
59 199
45 87
51 175
43 126
100 135
11 98
77 87
25 145
14 31
39 187
72 116
28 50
20 127
64 166
64 11
23 52
89 68
95 112
60 121
59 155
93 172
98 198
18 74
56 46
43 147
24 177
42 120
68 151
92 76
80 154
100 41
85 121
67 169
82 154
34 82
94 156
53 150
12 145
12 117
74 132
96 13
14 138
84 124
43 159
57 26
11 111
69 152
45 168
28 120
16 30
73 28
32 66
90 150
94 36
45 12
54 165
71 109
84 172
84 12
10 66
94 86
50 119
50 63
14 169
27 29
74 186
36 186
86 81
83 95
34 46
62 108
74 147
53 124
94 61
38 71
83 19
58 149
63 175
71 36
30 28
95 154
58 158
16 99
63 118
21 136
70 103
82 176
59 72
54 159
23 91
63 83
29 188
82 50
35 55
13 127
58 187
66 98
45 40
